joueur/fichiers_cnf/map1.cnf
c map1.map
p cnf 96 221
-3 -4 0
-3 -5 0
-4 -5 0
-1 -2 0
-2 -5 0
-1 -4 0
-5 1 0
-4 2 0
-27 -28 0
-27 -29 0
-28 -29 0
-25 -26 0
-26 -29 0
-25 -28 0
-29 25 0
-28 26 0
-51 -52 0
-51 -53 0
-52 -53 0
-49 -50 0
-50 -53 0
-49 -52 0
-53 49 0
-52 50 0
-75 -76 0
-75 -77 0
-76 -77 0
-73 -74 0
-74 -77 0
-73 -76 0
-77 73 0
-76 74 0
-9 -10 0
-9 -11 0
-10 -11 0
-7 -8 0
-8 -11 0
-7 -10 0
-11 7 0
-10 8 0
-33 -34 0
-33 -35 0
-34 -35 0
-31 -32 0
-32 -35 0
-31 -34 0
-35 31 0
-34 32 0
-57 -58 0
-57 -59 0
-58 -59 0
-55 -56 0
-56 -59 0
-55 -58 0
-59 55 0
-58 56 0
-81 -82 0
-81 -83 0
-82 -83 0
-79 -80 0
-80 -83 0
-79 -82 0
-83 79 0
-82 80 0
-15 -16 0
-15 -17 0
-16 -17 0
-13 -14 0
-14 -17 0
-13 -16 0
-17 13 0
-16 14 0
-39 -40 0
-39 -41 0
-40 -41 0
-37 -38 0
-38 -41 0
-37 -40 0
-41 37 0
-40 38 0
-63 -64 0
-63 -65 0
-64 -65 0
-61 -62 0
-62 -65 0
-61 -64 0
-65 61 0
-64 62 0
-87 -88 0
-87 -89 0
-88 -89 0
-85 -86 0
-86 -89 0
-85 -88 0
-89 85 0
-88 86 0
-21 -22 0
-21 -23 0
-22 -23 0
-19 -20 0
-20 -23 0
-19 -22 0
-23 19 0
-22 20 0
-45 -46 0
-45 -47 0
-46 -47 0
-43 -44 0
-44 -47 0
-43 -46 0
-47 43 0
-46 44 0
-69 -70 0
-69 -71 0
-70 -71 0
-67 -68 0
-68 -71 0
-67 -70 0
-71 67 0
-70 68 0
-93 -94 0
-93 -95 0
-94 -95 0
-91 -92 0
-92 -95 0
-91 -94 0
-95 91 0
-94 92 0
-69 0
-70 0
-71 0
-70 0
-70 0
-71 0
-69 0
67 0
-68 0
-39 0
-63 0
-87 0
-45 0
-93 0
-40 0
-64 0
-88 0
-46 0
-94 0
-41 0
-65 0
-89 0
-47 0
-95 0
37 0
-38 0
61 0
-62 0
85 0
-86 0
43 0
-44 0
91 0
-92 0
-94 0
-95 0
-93 0
-63 0
-87 0
-69 0
-64 0
-88 0
-70 0
-65 0
-89 0
-71 0
-46 0
-47 0
-45 0
-15 -39 0
-15 -63 0
-15 -21 0
-15 -69 0
-39 -63 0
-39 -21 0
-39 -69 0
-63 -21 0
-63 -69 0
-21 -69 0
15 39 63 21 69 0
-16 0
-40 0
-64 0
-22 0
-70 0
-17 -41 0
-17 -65 0
-17 -23 0
-17 -71 0
-41 -65 0
-41 -23 0
-41 -71 0
-65 -23 0
-65 -71 0
-23 -71 0
17 41 65 23 71 0
13 0
-14 0
19 0
-20 0
-22 0
-16 0
-17 0
-15 0
